100
1000
396
395
393
389
387
387
386
384
384
384
383
383
382
381
381
379
377
376
376
376
375
371
371
370
367
364
363
360
359
359
358
357
356
355
355
355
352
349
348
347
346
346
344
344
343
343
342
341
338
336
335
335
332
332
328
325
325
324
321
321
318
318
312
312
311
310
307
307
306
306
304
302
301
301
300
299
299
298
298
296
295
294
293
293
292
289
289
288
284
283
282
280
280
279
277
277
277
275
266
266
